20
1 0 19
2 0 19
2 1 13
3 0 11
3 1 19
3 2 12
4 0 12
4 1 18
4 2 3
4 3 4
5 0 18
5 1 4
5 2 13
5 3 17
5 4 6
6 0 8
6 1 17
6 2 6
6 3 7
6 4 9
6 5 9
7 0 16
7 1 13
7 2 11
7 3 12
7 4 16
7 5 15
7 6 17
8 0 19
8 1 12
8 2 15
8 3 19
8 4 16
8 5 14
8 6 5
8 7 8
9 0 6
9 1 6
9 2 3
9 3 7
9 4 15
9 5 15
9 6 5
9 7 19
9 8 15
10 0 5
10 1 12
10 2 3
10 3 12
10 4 5
10 5 3
10 6 4
10 7 15
10 8 15
10 9 7
11 0 13
11 1 1
11 2 4
11 3 5
11 4 18
11 5 3
11 6 3
11 7 14
11 8 12
11 9 6
11 10 3
12 0 15
12 1 8
12 2 4
12 3 8
12 4 12
12 5 13
12 6 10
12 7 20
12 8 15
12 9 12
12 10 6
12 11 8
13 0 17
13 1 7
13 2 12
13 3 10
13 4 6
13 5 9
13 6 8
13 7 9
13 8 11
13 9 12
13 10 18
13 11 6
13 12 9
14 0 7
14 1 3
14 2 9
14 3 13
14 4 17
14 5 4
14 6 17
14 7 8
14 8 12
14 9 9
14 10 9
14 11 20
14 12 1
14 13 11
15 0 4
15 1 17
15 2 6
15 3 1
15 4 14
15 5 14
15 6 18
15 7 10
15 8 7
15 9 20
15 10 12
15 11 13
15 12 7
15 13 13
15 14 19
16 0 1
16 1 3
16 2 4
16 3 12
16 4 7
16 5 8
16 6 7
16 7 3
16 8 6
16 9 13
16 10 17
16 11 20
16 12 12
16 13 5
16 14 5
16 15 6
17 0 2
17 1 3
17 2 7
17 3 14
17 4 19
17 5 17
17 6 4
17 7 11
17 8 9
17 9 20
17 10 20
17 11 8
17 12 20
17 13 2
17 14 2
17 15 8
17 16 1
18 0 8
18 1 19
18 2 18
18 3 16
18 4 18
18 5 4
18 6 4
18 7 11
18 8 6
18 9 10
18 10 4
18 11 2
18 12 14
18 13 8
18 14 8
18 15 4
18 16 2
18 17 18
19 0 17
19 1 20
19 2 10
19 3 19
19 4 10
19 5 9
19 6 13
19 7 15
19 8 9
19 9 15
19 10 4
19 11 9
19 12 1
19 13 16
19 14 13
19 15 20
19 16 20
19 17 9
19 18 14
